cases/pglib-opf/pglib_opf_case14_ieee.m
ipopt
ACR
[info | PowerModels]: removing 3 cost terms from generator 4: Float64[]
[info | PowerModels]: removing 1 cost terms from generator 1: [792.0951, 0.0]
[info | PowerModels]: removing 3 cost terms from generator 5: Float64[]
[info | PowerModels]: removing 1 cost terms from generator 2: [2326.9494, 0.0]
[info | PowerModels]: removing 3 cost terms from generator 3: Float64[]

******************************************************************************
This program contains Ipopt, a library for large-scale nonlinear optimization.
 Ipopt is released as open source code under the Eclipse Public License (EPL).
         For more information visit http://projects.coin-or.org/Ipopt
******************************************************************************

This is Ipopt version 3.13.2, running with linear solver mumps.
NOTE: Other linear solvers might be more efficient (see Ipopt documentation).

Number of nonzeros in equality constraint Jacobian...:      870
Number of nonzeros in inequality constraint Jacobian.:      456
Number of nonzeros in Lagrangian Hessian.............:      718

Total number of variables............................:      115
                     variables with only lower bounds:        0
                variables with lower and upper bounds:      115
                     variables with only upper bounds:        0
Total number of equality constraints.................:      109
Total number of inequality constraints...............:      108
        inequality constraints with only lower bounds:       34
   inequality constraints with lower and upper bounds:        0
        inequality constraints with only upper bounds:       74

iter    objective    inf_pr   inf_du lg(mu)  ||d||  lg(rg) alpha_du alpha_pr  ls
   0  2.1649922e+01 9.42e-01 1.88e+01  -1.0 0.00e+00    -  0.00e+00 0.00e+00   0
   1  2.4444361e+03 2.51e-01 1.33e+02  -1.0 1.81e+00    -  5.61e-03 7.34e-01H  1
   2  2.3998664e+03 4.44e-02 8.49e+01  -1.0 1.75e+00    -  1.74e-02 1.00e+00f  1
   3  2.1671958e+03 4.46e-02 8.31e+01  -1.0 2.66e+01    -  1.92e-01 1.91e-02f  1
   4  2.1879109e+03 3.68e-04 1.18e+00  -1.0 8.90e-01    -  9.94e-01 1.00e+00h  1
   5  2.1883557e+03 1.46e-05 2.78e-03  -1.0 1.67e-02    -  1.00e+00 1.00e+00h  1
   6  2.1833828e+03 1.77e-04 4.69e-01  -2.5 1.98e-02    -  8.06e-01 1.00e+00f  1
   7  2.1787334e+03 6.47e-04 2.22e-01  -2.5 4.82e-02    -  9.11e-01 7.52e-01f  1
   8  2.1788772e+03 9.46e-05 5.70e-01  -2.5 1.95e-02    -  8.58e-01 1.00e+00h  1
   9  2.1784749e+03 5.92e-05 4.61e-03  -2.5 2.83e-02    -  1.00e+00 1.00e+00h  1
iter    objective    inf_pr   inf_du lg(mu)  ||d||  lg(rg) alpha_du alpha_pr  ls
  10  2.1781156e+03 2.89e-05 5.61e-02  -3.8 1.82e-02    -  7.73e-01 9.45e-01h  1
  11  2.1781012e+03 3.57e-06 4.13e-04  -3.8 8.80e-03    -  1.00e+00 1.00e+00f  1
  12  2.1780807e+03 1.05e-06 3.31e-04  -5.7 4.17e-03    -  9.61e-01 9.50e-01h  1
  13  2.1780806e+03 8.63e-08 4.97e-06  -5.7 1.18e-03    -  1.00e+00 1.00e+00h  1
  14  2.1780804e+03 1.15e-09 1.74e-04  -8.6 1.03e-04    -  1.00e+00 9.95e-01h  1
  15  2.1780804e+03 9.56e-14 2.16e-09  -8.6 1.23e-06    -  1.00e+00 1.00e+00f  1

Number of Iterations....: 15

                                   (scaled)                 (unscaled)
Objective...............:   9.3602396868618143e+01    2.1780804123199287e+03
Dual infeasibility......:   2.1649468329165700e-09    5.0377217338871129e-08
Constraint violation....:   9.5590202420225978e-14    9.5590202420225978e-14
Complementarity.........:   4.7938188430762583e-09    1.1154973880604994e-07
Overall NLP error.......:   4.7938188430762583e-09    1.1154973880604994e-07


Number of objective function evaluations             = 17
Number of objective gradient evaluations             = 16
Number of equality constraint evaluations            = 17
Number of inequality constraint evaluations          = 17
Number of equality constraint Jacobian evaluations   = 16
Number of inequality constraint Jacobian evaluations = 16
Number of Lagrangian Hessian evaluations             = 15
Total CPU secs in IPOPT (w/o function evaluations)   =      0.246
Total CPU secs in NLP function evaluations           =      0.207

EXIT: Optimal Solution Found.
Time to Solution........:1.1520090103149414
